
Log started (V22.1.2.0) Wed Nov  5 11:01:32 2025


Problem 'C:\Users\USUARIO\AppData\Local\Temp\16d75cd98e59464cbb015626043997dc-pulp.lp' read.
Read time = 0.00 sec. (0.00 ticks)
Version identifier: 22.1.2.0 | 2024-12-09 | 8bd2200c8
Tried aggregator 1 time.
LP Presolve eliminated 0 rows and 1 columns.
All rows and columns eliminated.
Presolve time = 0.00 sec. (0.00 ticks)

Dual simplex - Optimal:  Objective =  0.0000000000e+00
Solution time =    0.00 sec.  Iterations = 0 (0)
Deterministic time = 0.00 ticks  (0.17 ticks/sec)


Solution written to file 'C:\Users\USUARIO\AppData\Local\Temp\16d75cd98e59464cbb015626043997dc-pulp.sol'.

Log started (V22.1.2.0) Wed Nov  5 11:01:50 2025


Problem 'C:\Users\USUARIO\AppData\Local\Temp\dd8a94fd4d804f40b75eff748b92af1f-pulp.lp' read.
Read time = 0.00 sec. (0.00 ticks)
Version identifier: 22.1.2.0 | 2024-12-09 | 8bd2200c8
Tried aggregator 1 time.
LP Presolve eliminated 0 rows and 1 columns.
All rows and columns eliminated.
Presolve time = 0.00 sec. (0.00 ticks)

Dual simplex - Optimal:  Objective =  0.0000000000e+00
Solution time =    0.00 sec.  Iterations = 0 (0)
Deterministic time = 0.00 ticks  (0.17 ticks/sec)


Solution written to file 'C:\Users\USUARIO\AppData\Local\Temp\dd8a94fd4d804f40b75eff748b92af1f-pulp.sol'.

Log started (V22.1.2.0) Wed Nov  5 11:04:26 2025


Problem 'C:\Users\USUARIO\AppData\Local\Temp\e83b2cf3043a438c9d408fc506339d24-pulp.lp' read.
Read time = 0.00 sec. (0.00 ticks)
Version identifier: 22.1.2.0 | 2024-12-09 | 8bd2200c8
Tried aggregator 1 time.
LP Presolve eliminated 0 rows and 1 columns.
All rows and columns eliminated.
Presolve time = 0.00 sec. (0.00 ticks)

Dual simplex - Optimal:  Objective =  0.0000000000e+00
Solution time =    0.00 sec.  Iterations = 0 (0)
Deterministic time = 0.00 ticks  (0.17 ticks/sec)


Solution written to file 'C:\Users\USUARIO\AppData\Local\Temp\e83b2cf3043a438c9d408fc506339d24-pulp.sol'.

Log started (V22.1.2.0) Wed Nov  5 11:05:52 2025


Problem 'C:\Users\USUARIO\AppData\Local\Temp\cda453dcc7b8428f8f17adff3b35e55e-pulp.lp' read.
Read time = 0.00 sec. (0.00 ticks)
Version identifier: 22.1.2.0 | 2024-12-09 | 8bd2200c8
Tried aggregator 1 time.
LP Presolve eliminated 0 rows and 1 columns.
All rows and columns eliminated.
Presolve time = 0.00 sec. (0.00 ticks)

Dual simplex - Optimal:  Objective =  0.0000000000e+00
Solution time =    0.00 sec.  Iterations = 0 (0)
Deterministic time = 0.00 ticks  (0.17 ticks/sec)


Solution written to file 'C:\Users\USUARIO\AppData\Local\Temp\cda453dcc7b8428f8f17adff3b35e55e-pulp.sol'.
